0000000000000000
0000000000000000
0001111111010000
0001111111110000
0001111111111000
0000000000111000
0000000000011000
0000000000011000
0000000000011000
0000000000011000
0000000000011000
0000000000111001
0001111111111111
0001111111111111
0000000000000001
0000000000000000
